[VALIDATOR STDOUT]
Checking plan: /home/jfan5/Safety-gen/runs/benchmark/optic/grippers_20260201_172244/grippers/optic_results/grippers-n3-r23-o21-s21001.plan
Plan executed successfully - checking goal
Plan valid
Final value: 76 

Successful plans:
Value: 76
 /home/jfan5/Safety-gen/runs/benchmark/optic/grippers_20260201_172244/grippers/optic_results/grippers-n3-r23-o21-s21001.plan 76
